; benchmark generated from python API
(set-info :status unknown)
(declare-fun cell_1_8 () Int)
(declare-fun cell_2_1 () Int)
(declare-fun cell_3_5 () Int)
(declare-fun cell_4_4 () Int)
(declare-fun cell_1_1 () Int)
(declare-fun cell_3_1 () Int)
(declare-fun cell_4_1 () Int)
(declare-fun cell_5_1 () Int)
(declare-fun cell_6_1 () Int)
(declare-fun cell_7_1 () Int)
(declare-fun cell_8_1 () Int)
(declare-fun cell_9_1 () Int)
(declare-fun cell_1_2 () Int)
(declare-fun cell_2_2 () Int)
(declare-fun cell_3_2 () Int)
(declare-fun cell_4_2 () Int)
(declare-fun cell_5_2 () Int)
(declare-fun cell_6_2 () Int)
(declare-fun cell_7_2 () Int)
(declare-fun cell_8_2 () Int)
(declare-fun cell_9_2 () Int)
(declare-fun cell_1_3 () Int)
(declare-fun cell_2_3 () Int)
(declare-fun cell_3_3 () Int)
(declare-fun cell_4_3 () Int)
(declare-fun cell_5_3 () Int)
(declare-fun cell_6_3 () Int)
(declare-fun cell_7_3 () Int)
(declare-fun cell_8_3 () Int)
(declare-fun cell_9_3 () Int)
(declare-fun cell_1_4 () Int)
(declare-fun cell_2_4 () Int)
(declare-fun cell_3_4 () Int)
(declare-fun cell_5_4 () Int)
(declare-fun cell_6_4 () Int)
(declare-fun cell_7_4 () Int)
(declare-fun cell_8_4 () Int)
(declare-fun cell_9_4 () Int)
(declare-fun cell_1_5 () Int)
(declare-fun cell_2_5 () Int)
(declare-fun cell_4_5 () Int)
(declare-fun cell_5_5 () Int)
(declare-fun cell_6_5 () Int)
(declare-fun cell_7_5 () Int)
(declare-fun cell_8_5 () Int)
(declare-fun cell_9_5 () Int)
(declare-fun cell_1_6 () Int)
(declare-fun cell_2_6 () Int)
(declare-fun cell_3_6 () Int)
(declare-fun cell_4_6 () Int)
(declare-fun cell_5_6 () Int)
(declare-fun cell_6_6 () Int)
(declare-fun cell_7_6 () Int)
(declare-fun cell_8_6 () Int)
(declare-fun cell_9_6 () Int)
(declare-fun cell_1_7 () Int)
(declare-fun cell_2_7 () Int)
(declare-fun cell_3_7 () Int)
(declare-fun cell_4_7 () Int)
(declare-fun cell_5_7 () Int)
(declare-fun cell_6_7 () Int)
(declare-fun cell_7_7 () Int)
(declare-fun cell_8_7 () Int)
(declare-fun cell_9_7 () Int)
(declare-fun cell_2_8 () Int)
(declare-fun cell_3_8 () Int)
(declare-fun cell_4_8 () Int)
(declare-fun cell_5_8 () Int)
(declare-fun cell_6_8 () Int)
(declare-fun cell_7_8 () Int)
(declare-fun cell_8_8 () Int)
(declare-fun cell_9_8 () Int)
(declare-fun cell_1_9 () Int)
(declare-fun cell_2_9 () Int)
(declare-fun cell_3_9 () Int)
(declare-fun cell_4_9 () Int)
(declare-fun cell_5_9 () Int)
(declare-fun cell_6_9 () Int)
(declare-fun cell_7_9 () Int)
(declare-fun cell_8_9 () Int)
(declare-fun cell_9_9 () Int)
(assert
 (= cell_1_8 1))
(assert
 (= cell_2_1 1))
(assert
 (= cell_3_5 1))
(assert
 (= cell_4_4 1))
(assert
 (let (($x1695 (= cell_1_1 9)))
 (let (($x266 (= cell_1_1 8)))
 (let (($x5297 (= cell_1_1 7)))
 (let (($x2344 (= cell_1_1 6)))
 (let (($x1981 (= cell_1_1 5)))
 (let (($x7876 (= cell_1_1 4)))
 (let (($x1109 (= cell_1_1 3)))
 (let (($x9181 (= cell_1_1 2)))
 (let (($x8207 (= cell_1_1 1)))
 (or $x8207 $x9181 $x1109 $x7876 $x1981 $x2344 $x5297 $x266 $x1695)))))))))))
(assert
 (let (($x9584 (= cell_2_1 1)))
 (or $x9584 (= cell_2_1 2) (= cell_2_1 3) (= cell_2_1 4) (= cell_2_1 5) (= cell_2_1 6) (= cell_2_1 7) (= cell_2_1 8) (= cell_2_1 9))))
(assert
 (let (($x7626 (= cell_3_1 9)))
 (let (($x8456 (= cell_3_1 8)))
 (let (($x6289 (= cell_3_1 7)))
 (let (($x6596 (= cell_3_1 6)))
 (let (($x2663 (= cell_3_1 5)))
 (let (($x3197 (= cell_3_1 4)))
 (let (($x38 (= cell_3_1 3)))
 (let (($x1036 (= cell_3_1 2)))
 (let (($x8549 (= cell_3_1 1)))
 (or $x8549 $x1036 $x38 $x3197 $x2663 $x6596 $x6289 $x8456 $x7626)))))))))))
(assert
 (let (($x2394 (= cell_4_1 9)))
 (let (($x5517 (= cell_4_1 8)))
 (let (($x1809 (= cell_4_1 7)))
 (let (($x3412 (= cell_4_1 6)))
 (let (($x3585 (= cell_4_1 5)))
 (let (($x1282 (= cell_4_1 4)))
 (let (($x2163 (= cell_4_1 3)))
 (let (($x2167 (= cell_4_1 2)))
 (let (($x7050 (= cell_4_1 1)))
 (or $x7050 $x2167 $x2163 $x1282 $x3585 $x3412 $x1809 $x5517 $x2394)))))))))))
(assert
 (let (($x7217 (= cell_5_1 1)))
 (or $x7217 (= cell_5_1 2) (= cell_5_1 3) (= cell_5_1 4) (= cell_5_1 5) (= cell_5_1 6) (= cell_5_1 7) (= cell_5_1 8) (= cell_5_1 9))))
(assert
 (let (($x7248 (= cell_6_1 1)))
 (or $x7248 (= cell_6_1 2) (= cell_6_1 3) (= cell_6_1 4) (= cell_6_1 5) (= cell_6_1 6) (= cell_6_1 7) (= cell_6_1 8) (= cell_6_1 9))))
(assert
 (let (($x1578 (= cell_7_1 1)))
 (or $x1578 (= cell_7_1 2) (= cell_7_1 3) (= cell_7_1 4) (= cell_7_1 5) (= cell_7_1 6) (= cell_7_1 7) (= cell_7_1 8) (= cell_7_1 9))))
(assert
 (let (($x3710 (= cell_8_1 1)))
 (or $x3710 (= cell_8_1 2) (= cell_8_1 3) (= cell_8_1 4) (= cell_8_1 5) (= cell_8_1 6) (= cell_8_1 7) (= cell_8_1 8) (= cell_8_1 9))))
(assert
 (let (($x3487 (= cell_9_1 1)))
 (or $x3487 (= cell_9_1 2) (= cell_9_1 3) (= cell_9_1 4) (= cell_9_1 5) (= cell_9_1 6) (= cell_9_1 7) (= cell_9_1 8) (= cell_9_1 9))))
(assert
 (let (($x7216 (= cell_1_2 9)))
 (let (($x6228 (= cell_1_2 8)))
 (let (($x7078 (= cell_1_2 7)))
 (let (($x5672 (= cell_1_2 6)))
 (let (($x248 (= cell_1_2 5)))
 (let (($x5241 (= cell_1_2 4)))
 (let (($x3390 (= cell_1_2 3)))
 (let (($x7706 (= cell_1_2 2)))
 (let (($x1351 (= cell_1_2 1)))
 (or $x1351 $x7706 $x3390 $x5241 $x248 $x5672 $x7078 $x6228 $x7216)))))))))))
(assert
 (let (($x7306 (= cell_2_2 1)))
 (or $x7306 (= cell_2_2 2) (= cell_2_2 3) (= cell_2_2 4) (= cell_2_2 5) (= cell_2_2 6) (= cell_2_2 7) (= cell_2_2 8) (= cell_2_2 9))))
(assert
 (let (($x8076 (= cell_3_2 9)))
 (let (($x4727 (= cell_3_2 8)))
 (let (($x5477 (= cell_3_2 7)))
 (let (($x260 (= cell_3_2 6)))
 (let (($x3575 (= cell_3_2 5)))
 (let (($x1740 (= cell_3_2 4)))
 (let (($x4695 (= cell_3_2 3)))
 (let (($x9095 (= cell_3_2 2)))
 (let (($x6157 (= cell_3_2 1)))
 (or $x6157 $x9095 $x4695 $x1740 $x3575 $x260 $x5477 $x4727 $x8076)))))))))))
(assert
 (let (($x4686 (= cell_4_2 9)))
 (let (($x5109 (= cell_4_2 8)))
 (let (($x2939 (= cell_4_2 7)))
 (let (($x6937 (= cell_4_2 6)))
 (let (($x2469 (= cell_4_2 5)))
 (let (($x6081 (= cell_4_2 4)))
 (let (($x5181 (= cell_4_2 3)))
 (let (($x187 (= cell_4_2 2)))
 (let (($x9962 (= cell_4_2 1)))
 (or $x9962 $x187 $x5181 $x6081 $x2469 $x6937 $x2939 $x5109 $x4686)))))))))))
(assert
 (or (= cell_5_2 1) (= cell_5_2 2) (= cell_5_2 3) (= cell_5_2 4) (= cell_5_2 5) (= cell_5_2 6) (= cell_5_2 7) (= cell_5_2 8) (= cell_5_2 9)))
(assert
 (or (= cell_6_2 1) (= cell_6_2 2) (= cell_6_2 3) (= cell_6_2 4) (= cell_6_2 5) (= cell_6_2 6) (= cell_6_2 7) (= cell_6_2 8) (= cell_6_2 9)))
(assert
 (let (($x4264 (= cell_7_2 1)))
 (or $x4264 (= cell_7_2 2) (= cell_7_2 3) (= cell_7_2 4) (= cell_7_2 5) (= cell_7_2 6) (= cell_7_2 7) (= cell_7_2 8) (= cell_7_2 9))))
(assert
 (or (= cell_8_2 1) (= cell_8_2 2) (= cell_8_2 3) (= cell_8_2 4) (= cell_8_2 5) (= cell_8_2 6) (= cell_8_2 7) (= cell_8_2 8) (= cell_8_2 9)))
(assert
 (or (= cell_9_2 1) (= cell_9_2 2) (= cell_9_2 3) (= cell_9_2 4) (= cell_9_2 5) (= cell_9_2 6) (= cell_9_2 7) (= cell_9_2 8) (= cell_9_2 9)))
(assert
 (let (($x8764 (= cell_1_3 9)))
 (let (($x414 (= cell_1_3 8)))
 (let (($x2601 (= cell_1_3 7)))
 (let (($x6939 (= cell_1_3 6)))
 (let (($x4987 (= cell_1_3 5)))
 (let (($x785 (= cell_1_3 4)))
 (let (($x5282 (= cell_1_3 3)))
 (let (($x7225 (= cell_1_3 2)))
 (let (($x848 (= cell_1_3 1)))
 (or $x848 $x7225 $x5282 $x785 $x4987 $x6939 $x2601 $x414 $x8764)))))))))))
(assert
 (let (($x9079 (= cell_2_3 1)))
 (or $x9079 (= cell_2_3 2) (= cell_2_3 3) (= cell_2_3 4) (= cell_2_3 5) (= cell_2_3 6) (= cell_2_3 7) (= cell_2_3 8) (= cell_2_3 9))))
(assert
 (let (($x9092 (= cell_3_3 9)))
 (let (($x10281 (= cell_3_3 8)))
 (let (($x2250 (= cell_3_3 7)))
 (let (($x8021 (= cell_3_3 6)))
 (let (($x8828 (= cell_3_3 5)))
 (let (($x6873 (= cell_3_3 4)))
 (let (($x4497 (= cell_3_3 3)))
 (let (($x8511 (= cell_3_3 2)))
 (let (($x2318 (= cell_3_3 1)))
 (or $x2318 $x8511 $x4497 $x6873 $x8828 $x8021 $x2250 $x10281 $x9092)))))))))))
(assert
 (let (($x490 (= cell_4_3 9)))
 (let (($x5085 (= cell_4_3 8)))
 (let (($x9931 (= cell_4_3 7)))
 (let (($x6475 (= cell_4_3 6)))
 (let (($x1397 (= cell_4_3 5)))
 (let (($x3742 (= cell_4_3 4)))
 (let (($x9926 (= cell_4_3 3)))
 (let (($x8715 (= cell_4_3 2)))
 (let (($x9105 (= cell_4_3 1)))
 (or $x9105 $x8715 $x9926 $x3742 $x1397 $x6475 $x9931 $x5085 $x490)))))))))))
(assert
 (let (($x5456 (= cell_5_3 1)))
 (or $x5456 (= cell_5_3 2) (= cell_5_3 3) (= cell_5_3 4) (= cell_5_3 5) (= cell_5_3 6) (= cell_5_3 7) (= cell_5_3 8) (= cell_5_3 9))))
(assert
 (let (($x9847 (= cell_6_3 1)))
 (or $x9847 (= cell_6_3 2) (= cell_6_3 3) (= cell_6_3 4) (= cell_6_3 5) (= cell_6_3 6) (= cell_6_3 7) (= cell_6_3 8) (= cell_6_3 9))))
(assert
 (or (= cell_7_3 1) (= cell_7_3 2) (= cell_7_3 3) (= cell_7_3 4) (= cell_7_3 5) (= cell_7_3 6) (= cell_7_3 7) (= cell_7_3 8) (= cell_7_3 9)))
(assert
 (or (= cell_8_3 1) (= cell_8_3 2) (= cell_8_3 3) (= cell_8_3 4) (= cell_8_3 5) (= cell_8_3 6) (= cell_8_3 7) (= cell_8_3 8) (= cell_8_3 9)))
(assert
 (or (= cell_9_3 1) (= cell_9_3 2) (= cell_9_3 3) (= cell_9_3 4) (= cell_9_3 5) (= cell_9_3 6) (= cell_9_3 7) (= cell_9_3 8) (= cell_9_3 9)))
(assert
 (let (($x1910 (= cell_1_4 9)))
 (let (($x7526 (= cell_1_4 8)))
 (let (($x8536 (= cell_1_4 7)))
 (let (($x7361 (= cell_1_4 6)))
 (let (($x836 (= cell_1_4 5)))
 (let (($x2562 (= cell_1_4 4)))
 (let (($x7806 (= cell_1_4 3)))
 (let (($x1047 (= cell_1_4 2)))
 (let (($x596 (= cell_1_4 1)))
 (or $x596 $x1047 $x7806 $x2562 $x836 $x7361 $x8536 $x7526 $x1910)))))))))))
(assert
 (let (($x9859 (= cell_2_4 9)))
 (let (($x6469 (= cell_2_4 8)))
 (let (($x6152 (= cell_2_4 7)))
 (let (($x7200 (= cell_2_4 6)))
 (let (($x253 (= cell_2_4 5)))
 (let (($x4170 (= cell_2_4 4)))
 (let (($x715 (= cell_2_4 3)))
 (let (($x3354 (= cell_2_4 2)))
 (let (($x6720 (= cell_2_4 1)))
 (or $x6720 $x3354 $x715 $x4170 $x253 $x7200 $x6152 $x6469 $x9859)))))))))))
(assert
 (let (($x2449 (= cell_3_4 9)))
 (let (($x6440 (= cell_3_4 8)))
 (let (($x1268 (= cell_3_4 7)))
 (let (($x6822 (= cell_3_4 6)))
 (let (($x4883 (= cell_3_4 5)))
 (let (($x5569 (= cell_3_4 4)))
 (let (($x10002 (= cell_3_4 3)))
 (let (($x3720 (= cell_3_4 2)))
 (let (($x410 (= cell_3_4 1)))
 (or $x410 $x3720 $x10002 $x5569 $x4883 $x6822 $x1268 $x6440 $x2449)))))))))))
(assert
 (let (($x9575 (= cell_4_4 1)))
 (or $x9575 (= cell_4_4 2) (= cell_4_4 3) (= cell_4_4 4) (= cell_4_4 5) (= cell_4_4 6) (= cell_4_4 7) (= cell_4_4 8) (= cell_4_4 9))))
(assert
 (let (($x475 (= cell_5_4 1)))
 (or $x475 (= cell_5_4 2) (= cell_5_4 3) (= cell_5_4 4) (= cell_5_4 5) (= cell_5_4 6) (= cell_5_4 7) (= cell_5_4 8) (= cell_5_4 9))))
(assert
 (let (($x7983 (= cell_6_4 1)))
 (or $x7983 (= cell_6_4 2) (= cell_6_4 3) (= cell_6_4 4) (= cell_6_4 5) (= cell_6_4 6) (= cell_6_4 7) (= cell_6_4 8) (= cell_6_4 9))))
(assert
 (let (($x1194 (= cell_7_4 1)))
 (or $x1194 (= cell_7_4 2) (= cell_7_4 3) (= cell_7_4 4) (= cell_7_4 5) (= cell_7_4 6) (= cell_7_4 7) (= cell_7_4 8) (= cell_7_4 9))))
(assert
 (let (($x3841 (= cell_8_4 1)))
 (or $x3841 (= cell_8_4 2) (= cell_8_4 3) (= cell_8_4 4) (= cell_8_4 5) (= cell_8_4 6) (= cell_8_4 7) (= cell_8_4 8) (= cell_8_4 9))))
(assert
 (let (($x1079 (= cell_9_4 1)))
 (or $x1079 (= cell_9_4 2) (= cell_9_4 3) (= cell_9_4 4) (= cell_9_4 5) (= cell_9_4 6) (= cell_9_4 7) (= cell_9_4 8) (= cell_9_4 9))))
(assert
 (let (($x9990 (= cell_1_5 9)))
 (let (($x2735 (= cell_1_5 8)))
 (let (($x4761 (= cell_1_5 7)))
 (let (($x1070 (= cell_1_5 6)))
 (let (($x145 (= cell_1_5 5)))
 (let (($x359 (= cell_1_5 4)))
 (let (($x5373 (= cell_1_5 3)))
 (let (($x5298 (= cell_1_5 2)))
 (let (($x6995 (= cell_1_5 1)))
 (or $x6995 $x5298 $x5373 $x359 $x145 $x1070 $x4761 $x2735 $x9990)))))))))))
(assert
 (let (($x7950 (= cell_2_5 9)))
 (let (($x2919 (= cell_2_5 8)))
 (let (($x2674 (= cell_2_5 7)))
 (let (($x6883 (= cell_2_5 6)))
 (let (($x7730 (= cell_2_5 5)))
 (let (($x8718 (= cell_2_5 4)))
 (let (($x3749 (= cell_2_5 3)))
 (let (($x8048 (= cell_2_5 2)))
 (let (($x601 (= cell_2_5 1)))
 (or $x601 $x8048 $x3749 $x8718 $x7730 $x6883 $x2674 $x2919 $x7950)))))))))))
(assert
 (let (($x58 (= cell_3_5 1)))
 (or $x58 (= cell_3_5 2) (= cell_3_5 3) (= cell_3_5 4) (= cell_3_5 5) (= cell_3_5 6) (= cell_3_5 7) (= cell_3_5 8) (= cell_3_5 9))))
(assert
 (let (($x1355 (= cell_4_5 1)))
 (or $x1355 (= cell_4_5 2) (= cell_4_5 3) (= cell_4_5 4) (= cell_4_5 5) (= cell_4_5 6) (= cell_4_5 7) (= cell_4_5 8) (= cell_4_5 9))))
(assert
 (let (($x5691 (= cell_5_5 1)))
 (or $x5691 (= cell_5_5 2) (= cell_5_5 3) (= cell_5_5 4) (= cell_5_5 5) (= cell_5_5 6) (= cell_5_5 7) (= cell_5_5 8) (= cell_5_5 9))))
(assert
 (let (($x1184 (= cell_6_5 1)))
 (or $x1184 (= cell_6_5 2) (= cell_6_5 3) (= cell_6_5 4) (= cell_6_5 5) (= cell_6_5 6) (= cell_6_5 7) (= cell_6_5 8) (= cell_6_5 9))))
(assert
 (let (($x5954 (= cell_7_5 1)))
 (or $x5954 (= cell_7_5 2) (= cell_7_5 3) (= cell_7_5 4) (= cell_7_5 5) (= cell_7_5 6) (= cell_7_5 7) (= cell_7_5 8) (= cell_7_5 9))))
(assert
 (let (($x8835 (= cell_8_5 1)))
 (or $x8835 (= cell_8_5 2) (= cell_8_5 3) (= cell_8_5 4) (= cell_8_5 5) (= cell_8_5 6) (= cell_8_5 7) (= cell_8_5 8) (= cell_8_5 9))))
(assert
 (let (($x6490 (= cell_9_5 1)))
 (or $x6490 (= cell_9_5 2) (= cell_9_5 3) (= cell_9_5 4) (= cell_9_5 5) (= cell_9_5 6) (= cell_9_5 7) (= cell_9_5 8) (= cell_9_5 9))))
(assert
 (let (($x3445 (= cell_1_6 9)))
 (let (($x9440 (= cell_1_6 8)))
 (let (($x4609 (= cell_1_6 7)))
 (let (($x9163 (= cell_1_6 6)))
 (let (($x5723 (= cell_1_6 5)))
 (let (($x5283 (= cell_1_6 4)))
 (let (($x7774 (= cell_1_6 3)))
 (let (($x7504 (= cell_1_6 2)))
 (let (($x6814 (= cell_1_6 1)))
 (or $x6814 $x7504 $x7774 $x5283 $x5723 $x9163 $x4609 $x9440 $x3445)))))))))))
(assert
 (let (($x6162 (= cell_2_6 9)))
 (let (($x5683 (= cell_2_6 8)))
 (let (($x1958 (= cell_2_6 7)))
 (let (($x9809 (= cell_2_6 6)))
 (let (($x5768 (= cell_2_6 5)))
 (let (($x2946 (= cell_2_6 4)))
 (let (($x7249 (= cell_2_6 3)))
 (let (($x5959 (= cell_2_6 2)))
 (let (($x335 (= cell_2_6 1)))
 (or $x335 $x5959 $x7249 $x2946 $x5768 $x9809 $x1958 $x5683 $x6162)))))))))))
(assert
 (let (($x7284 (= cell_3_6 1)))
 (or $x7284 (= cell_3_6 2) (= cell_3_6 3) (= cell_3_6 4) (= cell_3_6 5) (= cell_3_6 6) (= cell_3_6 7) (= cell_3_6 8) (= cell_3_6 9))))
(assert
 (let (($x1651 (= cell_4_6 1)))
 (or $x1651 (= cell_4_6 2) (= cell_4_6 3) (= cell_4_6 4) (= cell_4_6 5) (= cell_4_6 6) (= cell_4_6 7) (= cell_4_6 8) (= cell_4_6 9))))
(assert
 (let (($x6411 (= cell_5_6 1)))
 (or $x6411 (= cell_5_6 2) (= cell_5_6 3) (= cell_5_6 4) (= cell_5_6 5) (= cell_5_6 6) (= cell_5_6 7) (= cell_5_6 8) (= cell_5_6 9))))
(assert
 (let (($x1176 (= cell_6_6 1)))
 (or $x1176 (= cell_6_6 2) (= cell_6_6 3) (= cell_6_6 4) (= cell_6_6 5) (= cell_6_6 6) (= cell_6_6 7) (= cell_6_6 8) (= cell_6_6 9))))
(assert
 (let (($x5669 (= cell_7_6 1)))
 (or $x5669 (= cell_7_6 2) (= cell_7_6 3) (= cell_7_6 4) (= cell_7_6 5) (= cell_7_6 6) (= cell_7_6 7) (= cell_7_6 8) (= cell_7_6 9))))
(assert
 (or (= cell_8_6 1) (= cell_8_6 2) (= cell_8_6 3) (= cell_8_6 4) (= cell_8_6 5) (= cell_8_6 6) (= cell_8_6 7) (= cell_8_6 8) (= cell_8_6 9)))
(assert
 (or (= cell_9_6 1) (= cell_9_6 2) (= cell_9_6 3) (= cell_9_6 4) (= cell_9_6 5) (= cell_9_6 6) (= cell_9_6 7) (= cell_9_6 8) (= cell_9_6 9)))
(assert
 (let (($x2941 (= cell_1_7 9)))
 (let (($x9359 (= cell_1_7 8)))
 (let (($x5925 (= cell_1_7 7)))
 (let (($x2389 (= cell_1_7 6)))
 (let (($x3961 (= cell_1_7 5)))
 (let (($x1060 (= cell_1_7 4)))
 (let (($x4298 (= cell_1_7 3)))
 (let (($x1224 (= cell_1_7 2)))
 (let (($x4842 (= cell_1_7 1)))
 (or $x4842 $x1224 $x4298 $x1060 $x3961 $x2389 $x5925 $x9359 $x2941)))))))))))
(assert
 (let (($x6686 (= cell_2_7 1)))
 (or $x6686 (= cell_2_7 2) (= cell_2_7 3) (= cell_2_7 4) (= cell_2_7 5) (= cell_2_7 6) (= cell_2_7 7) (= cell_2_7 8) (= cell_2_7 9))))
(assert
 (let (($x6045 (= cell_3_7 1)))
 (or $x6045 (= cell_3_7 2) (= cell_3_7 3) (= cell_3_7 4) (= cell_3_7 5) (= cell_3_7 6) (= cell_3_7 7) (= cell_3_7 8) (= cell_3_7 9))))
(assert
 (let (($x3677 (= cell_4_7 1)))
 (or $x3677 (= cell_4_7 2) (= cell_4_7 3) (= cell_4_7 4) (= cell_4_7 5) (= cell_4_7 6) (= cell_4_7 7) (= cell_4_7 8) (= cell_4_7 9))))
(assert
 (or (= cell_5_7 1) (= cell_5_7 2) (= cell_5_7 3) (= cell_5_7 4) (= cell_5_7 5) (= cell_5_7 6) (= cell_5_7 7) (= cell_5_7 8) (= cell_5_7 9)))
(assert
 (or (= cell_6_7 1) (= cell_6_7 2) (= cell_6_7 3) (= cell_6_7 4) (= cell_6_7 5) (= cell_6_7 6) (= cell_6_7 7) (= cell_6_7 8) (= cell_6_7 9)))
(assert
 (or (= cell_7_7 1) (= cell_7_7 2) (= cell_7_7 3) (= cell_7_7 4) (= cell_7_7 5) (= cell_7_7 6) (= cell_7_7 7) (= cell_7_7 8) (= cell_7_7 9)))
(assert
 (let (($x555 (= cell_8_7 1)))
 (or $x555 (= cell_8_7 2) (= cell_8_7 3) (= cell_8_7 4) (= cell_8_7 5) (= cell_8_7 6) (= cell_8_7 7) (= cell_8_7 8) (= cell_8_7 9))))
(assert
 (or (= cell_9_7 1) (= cell_9_7 2) (= cell_9_7 3) (= cell_9_7 4) (= cell_9_7 5) (= cell_9_7 6) (= cell_9_7 7) (= cell_9_7 8) (= cell_9_7 9)))
(assert
 (let (($x2597 (= cell_1_8 1)))
 (or $x2597 (= cell_1_8 2) (= cell_1_8 3) (= cell_1_8 4) (= cell_1_8 5) (= cell_1_8 6) (= cell_1_8 7) (= cell_1_8 8) (= cell_1_8 9))))
(assert
 (let (($x1935 (= cell_2_8 1)))
 (or $x1935 (= cell_2_8 2) (= cell_2_8 3) (= cell_2_8 4) (= cell_2_8 5) (= cell_2_8 6) (= cell_2_8 7) (= cell_2_8 8) (= cell_2_8 9))))
(assert
 (let (($x435 (= cell_3_8 1)))
 (or $x435 (= cell_3_8 2) (= cell_3_8 3) (= cell_3_8 4) (= cell_3_8 5) (= cell_3_8 6) (= cell_3_8 7) (= cell_3_8 8) (= cell_3_8 9))))
(assert
 (let (($x2481 (= cell_4_8 1)))
 (or $x2481 (= cell_4_8 2) (= cell_4_8 3) (= cell_4_8 4) (= cell_4_8 5) (= cell_4_8 6) (= cell_4_8 7) (= cell_4_8 8) (= cell_4_8 9))))
(assert
 (let (($x8180 (= cell_5_8 1)))
 (or $x8180 (= cell_5_8 2) (= cell_5_8 3) (= cell_5_8 4) (= cell_5_8 5) (= cell_5_8 6) (= cell_5_8 7) (= cell_5_8 8) (= cell_5_8 9))))
(assert
 (let (($x2926 (= cell_6_8 1)))
 (or $x2926 (= cell_6_8 2) (= cell_6_8 3) (= cell_6_8 4) (= cell_6_8 5) (= cell_6_8 6) (= cell_6_8 7) (= cell_6_8 8) (= cell_6_8 9))))
(assert
 (let (($x6609 (= cell_7_8 1)))
 (or $x6609 (= cell_7_8 2) (= cell_7_8 3) (= cell_7_8 4) (= cell_7_8 5) (= cell_7_8 6) (= cell_7_8 7) (= cell_7_8 8) (= cell_7_8 9))))
(assert
 (let (($x9394 (= cell_8_8 1)))
 (or $x9394 (= cell_8_8 2) (= cell_8_8 3) (= cell_8_8 4) (= cell_8_8 5) (= cell_8_8 6) (= cell_8_8 7) (= cell_8_8 8) (= cell_8_8 9))))
(assert
 (let (($x4383 (= cell_9_8 1)))
 (or $x4383 (= cell_9_8 2) (= cell_9_8 3) (= cell_9_8 4) (= cell_9_8 5) (= cell_9_8 6) (= cell_9_8 7) (= cell_9_8 8) (= cell_9_8 9))))
(assert
 (let (($x6488 (= cell_1_9 1)))
 (or $x6488 (= cell_1_9 2) (= cell_1_9 3) (= cell_1_9 4) (= cell_1_9 5) (= cell_1_9 6) (= cell_1_9 7) (= cell_1_9 8) (= cell_1_9 9))))
(assert
 (let (($x8528 (= cell_2_9 1)))
 (or $x8528 (= cell_2_9 2) (= cell_2_9 3) (= cell_2_9 4) (= cell_2_9 5) (= cell_2_9 6) (= cell_2_9 7) (= cell_2_9 8) (= cell_2_9 9))))
(assert
 (let (($x3056 (= cell_3_9 1)))
 (or $x3056 (= cell_3_9 2) (= cell_3_9 3) (= cell_3_9 4) (= cell_3_9 5) (= cell_3_9 6) (= cell_3_9 7) (= cell_3_9 8) (= cell_3_9 9))))
(assert
 (let (($x1111 (= cell_4_9 1)))
 (or $x1111 (= cell_4_9 2) (= cell_4_9 3) (= cell_4_9 4) (= cell_4_9 5) (= cell_4_9 6) (= cell_4_9 7) (= cell_4_9 8) (= cell_4_9 9))))
(assert
 (or (= cell_5_9 1) (= cell_5_9 2) (= cell_5_9 3) (= cell_5_9 4) (= cell_5_9 5) (= cell_5_9 6) (= cell_5_9 7) (= cell_5_9 8) (= cell_5_9 9)))
(assert
 (or (= cell_6_9 1) (= cell_6_9 2) (= cell_6_9 3) (= cell_6_9 4) (= cell_6_9 5) (= cell_6_9 6) (= cell_6_9 7) (= cell_6_9 8) (= cell_6_9 9)))
(assert
 (or (= cell_7_9 1) (= cell_7_9 2) (= cell_7_9 3) (= cell_7_9 4) (= cell_7_9 5) (= cell_7_9 6) (= cell_7_9 7) (= cell_7_9 8) (= cell_7_9 9)))
(assert
 (or (= cell_8_9 1) (= cell_8_9 2) (= cell_8_9 3) (= cell_8_9 4) (= cell_8_9 5) (= cell_8_9 6) (= cell_8_9 7) (= cell_8_9 8) (= cell_8_9 9)))
(assert
 (or (= cell_9_9 1) (= cell_9_9 2) (= cell_9_9 3) (= cell_9_9 4) (= cell_9_9 5) (= cell_9_9 6) (= cell_9_9 7) (= cell_9_9 8) (= cell_9_9 9)))
(assert
 (and (distinct cell_1_1 cell_1_2 cell_1_3 cell_1_4 cell_1_5 cell_1_6 cell_1_7 cell_1_8 cell_1_9) true))
(assert
 (and (distinct cell_2_1 cell_2_2 cell_2_3 cell_2_4 cell_2_5 cell_2_6 cell_2_7 cell_2_8 cell_2_9) true))
(assert
 (and (distinct cell_3_1 cell_3_2 cell_3_3 cell_3_4 cell_3_5 cell_3_6 cell_3_7 cell_3_8 cell_3_9) true))
(assert
 (and (distinct cell_4_1 cell_4_2 cell_4_3 cell_4_4 cell_4_5 cell_4_6 cell_4_7 cell_4_8 cell_4_9) true))
(assert
 (and (distinct cell_5_1 cell_5_2 cell_5_3 cell_5_4 cell_5_5 cell_5_6 cell_5_7 cell_5_8 cell_5_9) true))
(assert
 (and (distinct cell_6_1 cell_6_2 cell_6_3 cell_6_4 cell_6_5 cell_6_6 cell_6_7 cell_6_8 cell_6_9) true))
(assert
 (and (distinct cell_7_1 cell_7_2 cell_7_3 cell_7_4 cell_7_5 cell_7_6 cell_7_7 cell_7_8 cell_7_9) true))
(assert
 (and (distinct cell_8_1 cell_8_2 cell_8_3 cell_8_4 cell_8_5 cell_8_6 cell_8_7 cell_8_8 cell_8_9) true))
(assert
 (and (distinct cell_9_1 cell_9_2 cell_9_3 cell_9_4 cell_9_5 cell_9_6 cell_9_7 cell_9_8 cell_9_9) true))
(assert
 (and (distinct cell_1_1 cell_2_1 cell_3_1 cell_4_1 cell_5_1 cell_6_1 cell_7_1 cell_8_1 cell_9_1) true))
(assert
 (and (distinct cell_1_2 cell_2_2 cell_3_2 cell_4_2 cell_5_2 cell_6_2 cell_7_2 cell_8_2 cell_9_2) true))
(assert
 (and (distinct cell_1_3 cell_2_3 cell_3_3 cell_4_3 cell_5_3 cell_6_3 cell_7_3 cell_8_3 cell_9_3) true))
(assert
 (and (distinct cell_1_4 cell_2_4 cell_3_4 cell_4_4 cell_5_4 cell_6_4 cell_7_4 cell_8_4 cell_9_4) true))
(assert
 (and (distinct cell_1_5 cell_2_5 cell_3_5 cell_4_5 cell_5_5 cell_6_5 cell_7_5 cell_8_5 cell_9_5) true))
(assert
 (and (distinct cell_1_6 cell_2_6 cell_3_6 cell_4_6 cell_5_6 cell_6_6 cell_7_6 cell_8_6 cell_9_6) true))
(assert
 (and (distinct cell_1_7 cell_2_7 cell_3_7 cell_4_7 cell_5_7 cell_6_7 cell_7_7 cell_8_7 cell_9_7) true))
(assert
 (and (distinct cell_1_8 cell_2_8 cell_3_8 cell_4_8 cell_5_8 cell_6_8 cell_7_8 cell_8_8 cell_9_8) true))
(assert
 (and (distinct cell_1_9 cell_2_9 cell_3_9 cell_4_9 cell_5_9 cell_6_9 cell_7_9 cell_8_9 cell_9_9) true))
(assert
 (and (distinct cell_1_1 cell_1_2 cell_1_3 cell_2_1 cell_2_2 cell_2_3 cell_3_1 cell_3_2 cell_3_3) true))
(assert
 (and (distinct cell_1_4 cell_1_5 cell_1_6 cell_2_4 cell_2_5 cell_2_6 cell_3_4 cell_3_5 cell_3_6) true))
(assert
 (and (distinct cell_1_7 cell_1_8 cell_1_9 cell_2_7 cell_2_8 cell_2_9 cell_3_7 cell_3_8 cell_3_9) true))
(assert
 (and (distinct cell_4_1 cell_4_2 cell_4_3 cell_5_1 cell_5_2 cell_5_3 cell_6_1 cell_6_2 cell_6_3) true))
(assert
 (and (distinct cell_4_4 cell_4_5 cell_4_6 cell_5_4 cell_5_5 cell_5_6 cell_6_4 cell_6_5 cell_6_6) true))
(assert
 (and (distinct cell_4_7 cell_4_8 cell_4_9 cell_5_7 cell_5_8 cell_5_9 cell_6_7 cell_6_8 cell_6_9) true))
(assert
 (and (distinct cell_7_1 cell_7_2 cell_7_3 cell_8_1 cell_8_2 cell_8_3 cell_9_1 cell_9_2 cell_9_3) true))
(assert
 (and (distinct cell_7_4 cell_7_5 cell_7_6 cell_8_4 cell_8_5 cell_8_6 cell_9_4 cell_9_5 cell_9_6) true))
(assert
 (and (distinct cell_7_7 cell_7_8 cell_7_9 cell_8_7 cell_8_8 cell_8_9 cell_9_7 cell_9_8 cell_9_9) true))
(assert
 (let (($x3195 (and (distinct cell_5_9 cell_6_8 cell_7_7 cell_8_6) true)))
 (let (($x2889 (and (distinct cell_2_9 cell_3_8 cell_4_7 cell_5_6 cell_6_5 cell_7_4 cell_8_3 cell_9_2) true)))
 (let (($x3070 (and (distinct cell_1_8 cell_2_7 cell_3_6 cell_4_5 cell_5_4 cell_6_3 cell_7_2 cell_8_1) true)))
 (let (($x1880 (and (distinct cell_1_5 cell_2_4 cell_3_3 cell_4_2) true)))
 (let (($x622 (and (distinct cell_5_1 cell_6_2 cell_7_3 cell_8_4) true)))
 (let (($x4835 (and (distinct cell_2_1 cell_3_2 cell_4_3 cell_5_4 cell_6_5 cell_7_6 cell_8_7 cell_9_8) true)))
 (let (($x9611 (and (distinct cell_1_2 cell_2_3 cell_3_4 cell_4_5 cell_5_6 cell_6_7 cell_7_8 cell_8_9) true)))
 (let (($x2642 (and (distinct cell_1_5 cell_2_6 cell_3_7 cell_4_8) true)))
 (and $x2642 $x9611 $x4835 $x622 $x1880 $x3070 $x2889 $x3195))))))))))
(assert
 (= cell_5_3 1))
(check-sat)
